Maximize
  100 x_motorcycles + 225 x_sedans
Subject To
  c1: 0.75 x_motorcycles - 0.25 x_sedans <= 0
  c2: 4 x_motorcycles + 15 x_sedans <= 200
  c3: 30 x_motorcycles + 70 x_sedans >= -220.40815900000007
End